c
c COPYRIGHT C 2007
c UNIVERSITY OF TORONTO
c ALL RIGHTS RESERVED
c
c PERMISSION IS GRANTED TO USE, COPY, CREATE DERIVATIVE WORKS
c AND REDISTRIBUTE THIS DATA AND SUCH DERIVATIVE WORKS FOR
c NONCOMMERCIAL EDUCATION AND RESEARCH PURPOSES, SO LONG AS NO 
c FEE IS CHARGED, AND SO LONG AS THE COPYRIGHT NOTICE ABOVE,
c THIS GRANT OF PERMISSION, AND THE DISCLAIMER BELOW APPEAR IN
c ALL COPIES MADE; AND SO LONG AS THE NAME OF THE UNIVERSITY OF
c TORONTO IS NOT USED IN ANY ADVERTISING OR PUBLICITY 
c PERTAINING TO THE USE OR DISTRIBUTION OF THIS DATA WITHOUT
c SPECIFIC, WRITTEN PRIOR AUTHORIZATION.
c
c THIS DATA IS PROVIDED AS IS, WITHOUT REPRESENTATION FROM THE
c UNIVERSITY OF TORONTO AS TO ITS FITNESS FOR ANY PURPOSE, AND 
c WITHOUT WARRANTY BY THE UNIVERSITY OF TORONTO OF ANY KIND,
c EITHER EXPRESSED OR IMPLIED, INCLUDING WITHOUT LIMITATION THE
c IMPLIED WARRANTIES OF MERCHANTABILITY AND FITNESS FOR A
c PARTICULAR PURPOSE. THE UNIVERSITY OF TORONTO 
c SHALL NOT BE LIABLE FOR ANY DAMAGES, INCLUDING SPECIAL,
c INDIRECT, INCIDENTAL, OR CONSEQUENTIAL DAMAGES, WITH RESPECT
c TO ANY CLAIM ARISING OUT OF OR IN CONNECTION WITH THE USE OF
c THE DATA, EVEN IF IT HAS BEEN OR IS HEREAFTER ADVISED OF THE 
c POSSIBILITY OF SUCH DAMAGES.
c Generated by Hratch Mangassarian
p cnf 304 774
e 280 281 282 283 284 285 286 287 288 289 290 291 292 293 294 295 296 297 298 299 300 301 302 303 0
a 279 0
e 1 2 3 4 5 6 7 8 9 10 11 12 13 14 15 16 17 18 19 20 21 22 23 24 25 26 27 28 29 30 31 32 33 34 35 36 37 38 39 40 41 42 43 44 45 46 47 48 49 50 51 52 53 54 55 56 57 58 59 60 61 62 63 64 65 66 67 68 69 70 71 72 73 74 75 76 77 78 79 80 81 82 83 84 85 86 87 88 89 90 91 92 93 94 95 96 97 98 99 100 101 102 103 104 105 106 107 108 109 110 111 112 113 114 115 116 117 118 119 120 121 122 123 124 125 126 127 128 129 130 131 132 133 134 135 136 137 138 139 140 141 142 143 144 145 146 147 148 149 150 151 152 153 154 155 156 157 158 159 160 161 162 163 164 165 166 167 168 169 170 171 172 173 174 175 176 177 178 179 180 181 182 183 184 185 186 187 188 189 190 191 192 193 194 195 196 197 198 199 200 201 202 203 204 205 206 207 208 209 210 211 212 213 214 215 216 217 218 219 220 221 222 223 224 225 226 227 228 229 230 231 232 233 234 235 236 237 238 239 240 241 242 243 244 245 246 247 248 249 250 251 252 253 254 255 256 257 258 259 260 261 262 263 264 265 266 267 268 269 270 271 272 273 274 275 276 277 278 0
 70 0
 -45 -75 0
 -23 -75 0
 -48 -75 0
 -47 -75 0
 45 23 48 47 75 0
 78 87 0
 101 87 0
 -78 -101 -87 0
 -78 -96 0
 78 96 0
 -80 -81 0
 80 81 0
 -83 -84 0
 83 84 0
 -101 -102 0
 101 102 0
 -163 -219 0
 163 219 0
 -169 -217 0
 169 217 0
 -173 -254 0
 173 254 0
 -175 -214 0
 175 214 0
 -179 -210 0
 179 210 0
 -185 -208 0
 185 208 0
 187 207 0
 189 207 0
 -187 -189 -207 0
 -187 -239 0
 187 239 0
 -189 -204 0
 189 204 0
 -202 -103 0
 -195 -103 0
 202 195 103 0
 202 104 0
 195 104 0
 -202 -195 -104 0
 -195 -106 0
 195 106 0
 -202 -203 0
 202 203 0
 22 74 0
 21 74 0
 24 74 0
 75 74 0
 -22 -21 -24 -75 -74 0
 -80 94 0
 -87 94 0
 80 87 -94 0
 -101 97 0
 -96 97 0
 101 96 -97 0
 -189 240 0
 -239 240 0
 189 239 -240 0
 -106 -105 0
 -202 -105 0
 106 202 105 0
 102 -100 0
 -102 100 0
 50 196 0
 203 196 0
 -50 -203 -196 0
 -84 -85 0
 -87 -85 0
 -81 -85 0
 84 87 81 85 0
 -87 -86 0
 -81 -86 0
 87 81 86 0
 -87 -92 0
 87 92 0
 -102 98 0
 -78 98 0
 102 78 -98 0
 -208 -209 0
 -207 -209 0
 208 207 209 0
 -185 237 0
 -207 237 0
 185 207 -237 0
 -207 -235 0
 207 235 0
 -204 241 0
 -187 241 0
 204 187 -241 0
 104 -52 0
 -104 52 0
 -49 -72 0
 -74 -72 0
 49 74 72 0
 -74 -76 0
 74 76 0
 -81 93 0
 -92 93 0
 81 92 -93 0
 -84 90 0
 -86 90 0
 84 86 -90 0
 97 -99 0
 98 -99 0
 -97 -98 99 0
 240 -242 0
 241 -242 0
 -240 -241 242 0
 105 -43 0
 -105 43 0
 85 -69 0
 105 -69 0
 -85 -105 69 0
 -86 -88 0
 86 88 0
 183 211 0
 209 211 0
 181 211 0
 -183 -209 -181 -211 0
 -183 -209 -234 0
 183 209 -234 0
 -183 209 234 0
 183 -209 234 0
 183 252 0
 209 252 0
 -183 -209 -252 0
 -208 236 0
 -235 236 0
 208 235 -236 0
 100 -260 0
 -100 260 0
 -41 192 0
 -72 192 0
 41 72 -192 0
 -42 199 0
 -72 199 0
 42 72 -199 0
 -72 -190 0
 72 190 0
 -72 -197 0
 72 197 0
 76 -73 0
 49 -73 0
 -76 -49 73 0
 76 -71 0
 70 -71 0
 -76 -70 71 0
 93 -95 0
 94 -95 0
 -93 -94 95 0
 99 -77 0
 -99 77 0
 -83 89 0
 -88 89 0
 83 88 -89 0
 236 -238 0
 237 -238 0
 -236 -237 238 0
 -69 -123 0
 -103 -123 0
 69 103 123 0
 -69 -124 0
 69 124 0
 -211 -212 0
 -210 -212 0
 211 210 212 0
 -211 -210 -232 0
 211 210 -232 0
 -211 210 232 0
 211 -210 232 0
 -181 -252 -233 0
 181 252 -233 0
 -181 252 233 0
 181 -252 233 0
 159 -62 0
 73 -62 0
 -159 -73 62 0
 161 -63 0
 73 -63 0
 -161 -73 63 0
 163 -64 0
 73 -64 0
 -163 -73 64 0
 165 -65 0
 73 -65 0
 -165 -73 65 0
 167 -66 0
 73 -66 0
 -167 -73 66 0
 169 -67 0
 73 -67 0
 -169 -73 67 0
 73 -53 0
 171 -53 0
 -73 -171 53 0
 173 -54 0
 73 -54 0
 -173 -73 54 0
 175 -55 0
 73 -55 0
 -175 -73 55 0
 177 -56 0
 73 -56 0
 -177 -73 56 0
 179 -57 0
 73 -57 0
 -179 -73 57 0
 181 -58 0
 73 -58 0
 -181 -73 58 0
 183 -59 0
 73 -59 0
 -183 -73 59 0
 185 -60 0
 73 -60 0
 -185 -73 60 0
 187 -61 0
 73 -61 0
 -187 -73 61 0
 189 -68 0
 73 -68 0
 -189 -73 68 0
 -195 191 0
 -190 191 0
 195 190 -191 0
 95 -79 0
 -95 79 0
 -196 198 0
 -197 198 0
 196 197 -198 0
 71 -51 0
 -71 51 0
 89 -91 0
 90 -91 0
 -89 -90 91 0
 159 126 0
 123 126 0
 -159 -123 -126 0
 161 128 0
 123 128 0
 -161 -123 -128 0
 163 130 0
 123 130 0
 -163 -123 -130 0
 165 132 0
 123 132 0
 -165 -123 -132 0
 167 134 0
 123 134 0
 -167 -123 -134 0
 169 136 0
 123 136 0
 -169 -123 -136 0
 171 138 0
 123 138 0
 -171 -123 -138 0
 173 140 0
 123 140 0
 -173 -123 -140 0
 175 142 0
 123 142 0
 -175 -123 -142 0
 177 144 0
 123 144 0
 -177 -123 -144 0
 179 146 0
 123 146 0
 -179 -123 -146 0
 181 148 0
 123 148 0
 -181 -123 -148 0
 183 150 0
 123 150 0
 -183 -123 -150 0
 185 152 0
 123 152 0
 -185 -123 -152 0
 187 154 0
 123 154 0
 -187 -123 -154 0
 189 156 0
 123 156 0
 -189 -123 -156 0
 -124 -125 0
 -103 -125 0
 124 103 125 0
 177 213 0
 212 213 0
 -177 -212 -213 0
 -177 -212 -231 0
 177 212 -231 0
 -177 212 231 0
 177 -212 231 0
 -233 -255 0
 233 255 0
 77 -257 0
 -77 257 0
 191 -193 0
 192 -193 0
 -191 -192 193 0
 62 -40 0
 -62 40 0
 63 -39 0
 -63 39 0
 64 -38 0
 -64 38 0
 65 -37 0
 -65 37 0
 66 -36 0
 -66 36 0
 67 -35 0
 -67 35 0
 53 -34 0
 -53 34 0
 54 -33 0
 -54 33 0
 55 -32 0
 -55 32 0
 56 -31 0
 -56 31 0
 57 -30 0
 -57 30 0
 58 -29 0
 -58 29 0
 59 -28 0
 -59 28 0
 60 -27 0
 -60 27 0
 61 -26 0
 -61 26 0
 68 -25 0
 -68 25 0
 198 -200 0
 199 -200 0
 -198 -199 200 0
 91 -82 0
 -91 82 0
 232 147 0
 125 147 0
 -232 -125 -147 0
 234 151 0
 125 151 0
 -234 -125 -151 0
 238 153 0
 125 153 0
 -238 -125 -153 0
 204 157 0
 125 157 0
 -204 -125 -157 0
 242 155 0
 125 155 0
 -242 -125 -155 0
 231 145 0
 125 145 0
 -231 -125 -145 0
 255 149 0
 125 149 0
 -255 -125 -149 0
 -214 -215 0
 -213 -215 0
 -254 -215 0
 214 213 254 215 0
 -213 -205 0
 -214 -205 0
 213 214 205 0
 -175 229 0
 -213 229 0
 175 213 -229 0
 -213 -227 0
 213 227 0
 79 -258 0
 -79 258 0
 193 -194 0
 -193 194 0
 200 -201 0
 -200 201 0
 145 113 0
 144 113 0
 -145 -144 -113 0
 147 112 0
 146 112 0
 -147 -146 -112 0
 149 111 0
 148 111 0
 -149 -148 -111 0
 151 110 0
 150 110 0
 -151 -150 -110 0
 153 109 0
 152 109 0
 -153 -152 -109 0
 155 108 0
 154 108 0
 -155 -154 -108 0
 157 107 0
 156 107 0
 -157 -156 -107 0
 171 216 0
 215 216 0
 -171 -215 -216 0
 -215 -171 -222 0
 215 171 -222 0
 -215 171 222 0
 215 -171 222 0
 -254 225 0
 -205 225 0
 254 205 -225 0
 -205 -223 0
 205 223 0
 -214 228 0
 -227 228 0
 214 227 -228 0
 82 -259 0
 -82 259 0
 113 -176 0
 -113 176 0
 112 -178 0
 -112 178 0
 111 -180 0
 -111 180 0
 110 -182 0
 -110 182 0
 109 -184 0
 -109 184 0
 108 -186 0
 -108 186 0
 107 -188 0
 -107 188 0
 228 -230 0
 229 -230 0
 -228 -229 230 0
 222 139 0
 125 139 0
 -222 -125 -139 0
 -217 -218 0
 -216 -218 0
 217 216 218 0
 -169 250 0
 -216 250 0
 169 216 -250 0
 -216 -248 0
 216 248 0
 -173 224 0
 -223 224 0
 173 223 -224 0
 194 -277 0
 -194 277 0
 201 -278 0
 -201 278 0
 230 143 0
 125 143 0
 -230 -125 -143 0
 139 116 0
 138 116 0
 -139 -138 -116 0
 224 -226 0
 225 -226 0
 -224 -225 226 0
 167 220 0
 218 220 0
 165 220 0
 -167 -218 -165 -220 0
 -167 -218 -247 0
 167 218 -247 0
 -167 218 247 0
 167 -218 247 0
 167 253 0
 218 253 0
 -167 -218 -253 0
 -217 249 0
 -248 249 0
 217 248 -249 0
 176 -270 0
 -176 270 0
 178 -271 0
 -178 271 0
 180 -272 0
 -180 272 0
 182 -273 0
 -182 273 0
 184 -274 0
 -184 274 0
 186 -275 0
 -186 275 0
 188 -276 0
 -188 276 0
 143 114 0
 142 114 0
 -143 -142 -114 0
 226 141 0
 125 141 0
 -226 -125 -141 0
 116 -170 0
 -116 170 0
 249 -251 0
 250 -251 0
 -249 -250 251 0
 247 135 0
 125 135 0
 -247 -125 -135 0
 -220 -221 0
 -219 -221 0
 220 219 221 0
 -220 -219 -245 0
 220 219 -245 0
 -220 219 245 0
 220 -219 245 0
 -165 -253 -246 0
 165 253 -246 0
 -165 253 246 0
 165 -253 246 0
 114 -174 0
 -114 174 0
 141 115 0
 140 115 0
 -141 -140 -115 0
 251 137 0
 125 137 0
 -251 -125 -137 0
 135 118 0
 134 118 0
 -135 -134 -118 0
 245 131 0
 125 131 0
 -245 -125 -131 0
 221 -206 0
 161 -206 0
 -221 -161 206 0
 -161 -221 -244 0
 161 221 -244 0
 -161 221 244 0
 161 -221 244 0
 -246 -256 0
 246 256 0
 170 -267 0
 -170 267 0
 115 -172 0
 -115 172 0
 137 117 0
 136 117 0
 -137 -136 -117 0
 118 -166 0
 -118 166 0
 131 120 0
 130 120 0
 -131 -130 -120 0
 244 129 0
 125 129 0
 -244 -125 -129 0
 256 133 0
 125 133 0
 -256 -125 -133 0
 -159 -206 -243 0
 159 206 -243 0
 -159 206 243 0
 159 -206 243 0
 174 -269 0
 -174 269 0
 117 -168 0
 -117 168 0
 120 -162 0
 -120 162 0
 129 121 0
 128 121 0
 -129 -128 -121 0
 133 119 0
 132 119 0
 -133 -132 -119 0
 243 127 0
 125 127 0
 -243 -125 -127 0
 172 -268 0
 -172 268 0
 166 -265 0
 -166 265 0
 121 -160 0
 -121 160 0
 119 -164 0
 -119 164 0
 127 122 0
 126 122 0
 -127 -126 -122 0
 168 -266 0
 -168 266 0
 162 -263 0
 -162 263 0
 122 -158 0
 -122 158 0
 160 -262 0
 -160 262 0
 164 -264 0
 -164 264 0
 158 -261 0
 -158 261 0
 -280 0
 281 0
 279 280 -78 0
 279 -280 78 0
 -279 282 -78 0
 -279 -282 78 0
 279 280 -80 0
 279 -280 80 0
 -279 283 -80 0
 -279 -283 80 0
 279 280 -83 0
 279 -280 83 0
 -279 284 -83 0
 -279 -284 83 0
 279 280 -101 0
 279 -280 101 0
 -279 285 -101 0
 -279 -285 101 0
 279 280 -159 0
 279 -280 159 0
 -279 286 -159 0
 -279 -286 159 0
 279 280 -161 0
 279 -280 161 0
 -279 287 -161 0
 -279 -287 161 0
 279 280 -163 0
 279 -280 163 0
 -279 288 -163 0
 -279 -288 163 0
 279 280 -165 0
 279 -280 165 0
 -279 289 -165 0
 -279 -289 165 0
 279 280 -167 0
 279 -280 167 0
 -279 290 -167 0
 -279 -290 167 0
 279 280 -169 0
 279 -280 169 0
 -279 291 -169 0
 -279 -291 169 0
 279 280 -171 0
 279 -280 171 0
 -279 292 -171 0
 -279 -292 171 0
 279 280 -173 0
 279 -280 173 0
 -279 293 -173 0
 -279 -293 173 0
 279 280 -175 0
 279 -280 175 0
 -279 294 -175 0
 -279 -294 175 0
 279 280 -177 0
 279 -280 177 0
 -279 295 -177 0
 -279 -295 177 0
 279 280 -179 0
 279 -280 179 0
 -279 296 -179 0
 -279 -296 179 0
 279 280 -181 0
 279 -280 181 0
 -279 297 -181 0
 -279 -297 181 0
 279 280 -183 0
 279 -280 183 0
 -279 298 -183 0
 -279 -298 183 0
 279 280 -185 0
 279 -280 185 0
 -279 299 -185 0
 -279 -299 185 0
 279 280 -187 0
 279 -280 187 0
 -279 300 -187 0
 -279 -300 187 0
 279 280 -189 0
 279 -280 189 0
 -279 301 -189 0
 -279 -301 189 0
 279 280 -195 0
 279 -280 195 0
 -279 302 -195 0
 -279 -302 195 0
 279 280 -202 0
 279 -280 202 0
 -279 303 -202 0
 -279 -303 202 0
 279 282 -257 0
 279 -282 257 0
 -279 281 -257 0
 -279 -281 257 0
 279 283 -258 0
 279 -283 258 0
 -279 281 -258 0
 -279 -281 258 0
 279 284 -259 0
 279 -284 259 0
 -279 281 -259 0
 -279 -281 259 0
 279 285 -260 0
 279 -285 260 0
 -279 280 -260 0
 -279 -280 260 0
 279 286 -261 0
 279 -286 261 0
 -279 280 -261 0
 -279 -280 261 0
 279 287 -262 0
 279 -287 262 0
 -279 280 -262 0
 -279 -280 262 0
 279 288 -263 0
 279 -288 263 0
 -279 280 -263 0
 -279 -280 263 0
 279 289 -264 0
 279 -289 264 0
 -279 280 -264 0
 -279 -280 264 0
 279 290 -265 0
 279 -290 265 0
 -279 280 -265 0
 -279 -280 265 0
 279 291 -266 0
 279 -291 266 0
 -279 280 -266 0
 -279 -280 266 0
 279 292 -267 0
 279 -292 267 0
 -279 280 -267 0
 -279 -280 267 0
 279 293 -268 0
 279 -293 268 0
 -279 280 -268 0
 -279 -280 268 0
 279 294 -269 0
 279 -294 269 0
 -279 280 -269 0
 -279 -280 269 0
 279 295 -270 0
 279 -295 270 0
 -279 280 -270 0
 -279 -280 270 0
 279 296 -271 0
 279 -296 271 0
 -279 280 -271 0
 -279 -280 271 0
 279 297 -272 0
 279 -297 272 0
 -279 280 -272 0
 -279 -280 272 0
 279 298 -273 0
 279 -298 273 0
 -279 280 -273 0
 -279 -280 273 0
 279 299 -274 0
 279 -299 274 0
 -279 280 -274 0
 -279 -280 274 0
 279 300 -275 0
 279 -300 275 0
 -279 280 -275 0
 -279 -280 275 0
 279 301 -276 0
 279 -301 276 0
 -279 280 -276 0
 -279 -280 276 0
 279 302 -277 0
 279 -302 277 0
 -279 281 -277 0
 -279 -281 277 0
 279 303 -278 0
 279 -303 278 0
 -279 281 -278 0
 -279 -281 278 0
